; benchmark generated from python API
(set-info :status unknown)
(declare-fun cell_1_1 () Int)
(declare-fun cell_1_3 () Int)
(declare-fun cell_2_4 () Int)
(declare-fun cell_2_9 () Int)
(declare-fun cell_3_6 () Int)
(declare-fun cell_3_8 () Int)
(declare-fun cell_4_1 () Int)
(declare-fun cell_4_4 () Int)
(declare-fun cell_5_3 () Int)
(declare-fun cell_5_9 () Int)
(declare-fun cell_6_6 () Int)
(declare-fun cell_6_7 () Int)
(declare-fun cell_7_2 () Int)
(declare-fun cell_7_5 () Int)
(declare-fun cell_8_2 () Int)
(declare-fun cell_8_5 () Int)
(declare-fun cell_9_7 () Int)
(declare-fun cell_9_8 () Int)
(declare-fun cell_2_1 () Int)
(declare-fun cell_3_1 () Int)
(declare-fun cell_5_1 () Int)
(declare-fun cell_6_1 () Int)
(declare-fun cell_7_1 () Int)
(declare-fun cell_8_1 () Int)
(declare-fun cell_9_1 () Int)
(declare-fun cell_1_2 () Int)
(declare-fun cell_2_2 () Int)
(declare-fun cell_3_2 () Int)
(declare-fun cell_4_2 () Int)
(declare-fun cell_5_2 () Int)
(declare-fun cell_6_2 () Int)
(declare-fun cell_9_2 () Int)
(declare-fun cell_2_3 () Int)
(declare-fun cell_3_3 () Int)
(declare-fun cell_4_3 () Int)
(declare-fun cell_6_3 () Int)
(declare-fun cell_7_3 () Int)
(declare-fun cell_8_3 () Int)
(declare-fun cell_9_3 () Int)
(declare-fun cell_1_4 () Int)
(declare-fun cell_3_4 () Int)
(declare-fun cell_5_4 () Int)
(declare-fun cell_6_4 () Int)
(declare-fun cell_7_4 () Int)
(declare-fun cell_8_4 () Int)
(declare-fun cell_9_4 () Int)
(declare-fun cell_1_5 () Int)
(declare-fun cell_2_5 () Int)
(declare-fun cell_3_5 () Int)
(declare-fun cell_4_5 () Int)
(declare-fun cell_5_5 () Int)
(declare-fun cell_6_5 () Int)
(declare-fun cell_9_5 () Int)
(declare-fun cell_1_6 () Int)
(declare-fun cell_2_6 () Int)
(declare-fun cell_4_6 () Int)
(declare-fun cell_5_6 () Int)
(declare-fun cell_7_6 () Int)
(declare-fun cell_8_6 () Int)
(declare-fun cell_9_6 () Int)
(declare-fun cell_1_7 () Int)
(declare-fun cell_2_7 () Int)
(declare-fun cell_3_7 () Int)
(declare-fun cell_4_7 () Int)
(declare-fun cell_5_7 () Int)
(declare-fun cell_7_7 () Int)
(declare-fun cell_8_7 () Int)
(declare-fun cell_1_8 () Int)
(declare-fun cell_2_8 () Int)
(declare-fun cell_4_8 () Int)
(declare-fun cell_5_8 () Int)
(declare-fun cell_6_8 () Int)
(declare-fun cell_7_8 () Int)
(declare-fun cell_8_8 () Int)
(declare-fun cell_1_9 () Int)
(declare-fun cell_3_9 () Int)
(declare-fun cell_4_9 () Int)
(declare-fun cell_6_9 () Int)
(declare-fun cell_7_9 () Int)
(declare-fun cell_8_9 () Int)
(declare-fun cell_9_9 () Int)
(assert
 (= cell_1_1 2))
(assert
 (= cell_1_3 1))
(assert
 (= cell_2_4 1))
(assert
 (= cell_2_9 2))
(assert
 (= cell_3_6 2))
(assert
 (= cell_3_8 1))
(assert
 (= cell_4_1 1))
(assert
 (= cell_4_4 2))
(assert
 (= cell_5_3 2))
(assert
 (= cell_5_9 1))
(assert
 (= cell_6_6 1))
(assert
 (= cell_6_7 2))
(assert
 (= cell_7_2 1))
(assert
 (= cell_7_5 2))
(assert
 (= cell_8_2 2))
(assert
 (= cell_8_5 1))
(assert
 (= cell_9_7 1))
(assert
 (= cell_9_8 2))
(assert
 (let (($x7378 (= cell_1_1 2)))
 (or (= cell_1_1 1) $x7378 (= cell_1_1 3) (= cell_1_1 4) (= cell_1_1 5) (= cell_1_1 6) (= cell_1_1 7) (= cell_1_1 8) (= cell_1_1 9))))
(assert
 (let (($x5226 (= cell_2_1 9)))
 (let (($x3019 (= cell_2_1 8)))
 (let (($x6827 (= cell_2_1 7)))
 (let (($x8651 (= cell_2_1 6)))
 (let (($x2727 (= cell_2_1 5)))
 (let (($x5353 (= cell_2_1 4)))
 (let (($x2628 (= cell_2_1 3)))
 (let (($x3763 (= cell_2_1 2)))
 (let (($x6971 (= cell_2_1 1)))
 (or $x6971 $x3763 $x2628 $x5353 $x2727 $x8651 $x6827 $x3019 $x5226)))))))))))
(assert
 (let (($x2894 (= cell_3_1 9)))
 (let (($x2657 (= cell_3_1 8)))
 (let (($x2874 (= cell_3_1 7)))
 (let (($x6049 (= cell_3_1 6)))
 (let (($x7048 (= cell_3_1 5)))
 (let (($x2282 (= cell_3_1 4)))
 (let (($x6898 (= cell_3_1 3)))
 (let (($x4081 (= cell_3_1 2)))
 (let (($x6611 (= cell_3_1 1)))
 (or $x6611 $x4081 $x6898 $x2282 $x7048 $x6049 $x2874 $x2657 $x2894)))))))))))
(assert
 (let (($x4121 (= cell_4_1 1)))
 (or $x4121 (= cell_4_1 2) (= cell_4_1 3) (= cell_4_1 4) (= cell_4_1 5) (= cell_4_1 6) (= cell_4_1 7) (= cell_4_1 8) (= cell_4_1 9))))
(assert
 (let (($x10183 (= cell_5_1 9)))
 (let (($x1915 (= cell_5_1 8)))
 (let (($x5161 (= cell_5_1 7)))
 (let (($x6872 (= cell_5_1 6)))
 (let (($x2772 (= cell_5_1 5)))
 (let (($x1357 (= cell_5_1 4)))
 (let (($x5664 (= cell_5_1 3)))
 (let (($x5241 (= cell_5_1 2)))
 (let (($x615 (= cell_5_1 1)))
 (or $x615 $x5241 $x5664 $x1357 $x2772 $x6872 $x5161 $x1915 $x10183)))))))))))
(assert
 (let (($x10292 (= cell_6_1 9)))
 (let (($x736 (= cell_6_1 8)))
 (let (($x6561 (= cell_6_1 7)))
 (let (($x7656 (= cell_6_1 6)))
 (let (($x3799 (= cell_6_1 5)))
 (let (($x2620 (= cell_6_1 4)))
 (let (($x9799 (= cell_6_1 3)))
 (let (($x8295 (= cell_6_1 2)))
 (let (($x7892 (= cell_6_1 1)))
 (or $x7892 $x8295 $x9799 $x2620 $x3799 $x7656 $x6561 $x736 $x10292)))))))))))
(assert
 (let (($x9738 (= cell_7_1 9)))
 (let (($x2886 (= cell_7_1 8)))
 (let (($x844 (= cell_7_1 7)))
 (let (($x7390 (= cell_7_1 6)))
 (let (($x5768 (= cell_7_1 5)))
 (let (($x7554 (= cell_7_1 4)))
 (let (($x2044 (= cell_7_1 3)))
 (let (($x3920 (= cell_7_1 2)))
 (let (($x223 (= cell_7_1 1)))
 (or $x223 $x3920 $x2044 $x7554 $x5768 $x7390 $x844 $x2886 $x9738)))))))))))
(assert
 (let (($x1295 (= cell_8_1 9)))
 (let (($x3247 (= cell_8_1 8)))
 (let (($x3910 (= cell_8_1 7)))
 (let (($x4290 (= cell_8_1 6)))
 (let (($x7474 (= cell_8_1 5)))
 (let (($x1018 (= cell_8_1 4)))
 (let (($x4977 (= cell_8_1 3)))
 (let (($x3963 (= cell_8_1 2)))
 (let (($x5767 (= cell_8_1 1)))
 (or $x5767 $x3963 $x4977 $x1018 $x7474 $x4290 $x3910 $x3247 $x1295)))))))))))
(assert
 (let (($x4826 (= cell_9_1 9)))
 (let (($x1973 (= cell_9_1 8)))
 (let (($x1610 (= cell_9_1 7)))
 (let (($x8112 (= cell_9_1 6)))
 (let (($x9462 (= cell_9_1 5)))
 (let (($x2507 (= cell_9_1 4)))
 (let (($x8033 (= cell_9_1 3)))
 (let (($x5969 (= cell_9_1 2)))
 (let (($x6457 (= cell_9_1 1)))
 (or $x6457 $x5969 $x8033 $x2507 $x9462 $x8112 $x1610 $x1973 $x4826)))))))))))
(assert
 (let (($x3480 (= cell_1_2 9)))
 (let (($x7557 (= cell_1_2 8)))
 (let (($x9675 (= cell_1_2 7)))
 (let (($x4525 (= cell_1_2 6)))
 (let (($x9971 (= cell_1_2 5)))
 (let (($x5128 (= cell_1_2 4)))
 (let (($x5723 (= cell_1_2 3)))
 (let (($x5236 (= cell_1_2 2)))
 (let (($x2971 (= cell_1_2 1)))
 (or $x2971 $x5236 $x5723 $x5128 $x9971 $x4525 $x9675 $x7557 $x3480)))))))))))
(assert
 (let (($x4762 (= cell_2_2 9)))
 (let (($x5317 (= cell_2_2 8)))
 (let (($x2540 (= cell_2_2 7)))
 (let (($x3636 (= cell_2_2 6)))
 (let (($x1903 (= cell_2_2 5)))
 (let (($x2093 (= cell_2_2 4)))
 (let (($x6368 (= cell_2_2 3)))
 (let (($x5531 (= cell_2_2 2)))
 (let (($x10170 (= cell_2_2 1)))
 (or $x10170 $x5531 $x6368 $x2093 $x1903 $x3636 $x2540 $x5317 $x4762)))))))))))
(assert
 (let (($x10022 (= cell_3_2 9)))
 (let (($x299 (= cell_3_2 8)))
 (let (($x1682 (= cell_3_2 7)))
 (let (($x9292 (= cell_3_2 6)))
 (let (($x7708 (= cell_3_2 5)))
 (let (($x5076 (= cell_3_2 4)))
 (let (($x6598 (= cell_3_2 3)))
 (let (($x2079 (= cell_3_2 2)))
 (let (($x8701 (= cell_3_2 1)))
 (or $x8701 $x2079 $x6598 $x5076 $x7708 $x9292 $x1682 $x299 $x10022)))))))))))
(assert
 (let (($x2545 (= cell_4_2 9)))
 (let (($x2053 (= cell_4_2 8)))
 (let (($x460 (= cell_4_2 7)))
 (let (($x4709 (= cell_4_2 6)))
 (let (($x8284 (= cell_4_2 5)))
 (let (($x8147 (= cell_4_2 4)))
 (let (($x8310 (= cell_4_2 3)))
 (let (($x485 (= cell_4_2 2)))
 (let (($x7986 (= cell_4_2 1)))
 (or $x7986 $x485 $x8310 $x8147 $x8284 $x4709 $x460 $x2053 $x2545)))))))))))
(assert
 (let (($x266 (= cell_5_2 9)))
 (let (($x6338 (= cell_5_2 8)))
 (let (($x8787 (= cell_5_2 7)))
 (let (($x7659 (= cell_5_2 6)))
 (let (($x7479 (= cell_5_2 5)))
 (let (($x237 (= cell_5_2 4)))
 (let (($x8662 (= cell_5_2 3)))
 (let (($x2440 (= cell_5_2 2)))
 (let (($x3844 (= cell_5_2 1)))
 (or $x3844 $x2440 $x8662 $x237 $x7479 $x7659 $x8787 $x6338 $x266)))))))))))
(assert
 (let (($x8292 (= cell_6_2 9)))
 (let (($x1305 (= cell_6_2 8)))
 (let (($x2973 (= cell_6_2 7)))
 (let (($x933 (= cell_6_2 6)))
 (let (($x5979 (= cell_6_2 5)))
 (let (($x918 (= cell_6_2 4)))
 (let (($x823 (= cell_6_2 3)))
 (let (($x5865 (= cell_6_2 2)))
 (let (($x7398 (= cell_6_2 1)))
 (or $x7398 $x5865 $x823 $x918 $x5979 $x933 $x2973 $x1305 $x8292)))))))))))
(assert
 (let (($x9466 (= cell_7_2 1)))
 (or $x9466 (= cell_7_2 2) (= cell_7_2 3) (= cell_7_2 4) (= cell_7_2 5) (= cell_7_2 6) (= cell_7_2 7) (= cell_7_2 8) (= cell_7_2 9))))
(assert
 (let (($x478 (= cell_8_2 2)))
 (or (= cell_8_2 1) $x478 (= cell_8_2 3) (= cell_8_2 4) (= cell_8_2 5) (= cell_8_2 6) (= cell_8_2 7) (= cell_8_2 8) (= cell_8_2 9))))
(assert
 (let (($x8577 (= cell_9_2 9)))
 (let (($x764 (= cell_9_2 8)))
 (let (($x5887 (= cell_9_2 7)))
 (let (($x7475 (= cell_9_2 6)))
 (let (($x9474 (= cell_9_2 5)))
 (let (($x2643 (= cell_9_2 4)))
 (let (($x3631 (= cell_9_2 3)))
 (let (($x2451 (= cell_9_2 2)))
 (let (($x8699 (= cell_9_2 1)))
 (or $x8699 $x2451 $x3631 $x2643 $x9474 $x7475 $x5887 $x764 $x8577)))))))))))
(assert
 (let (($x595 (= cell_1_3 1)))
 (or $x595 (= cell_1_3 2) (= cell_1_3 3) (= cell_1_3 4) (= cell_1_3 5) (= cell_1_3 6) (= cell_1_3 7) (= cell_1_3 8) (= cell_1_3 9))))
(assert
 (let (($x5041 (= cell_2_3 9)))
 (let (($x9064 (= cell_2_3 8)))
 (let (($x5264 (= cell_2_3 7)))
 (let (($x4546 (= cell_2_3 6)))
 (let (($x3391 (= cell_2_3 5)))
 (let (($x5942 (= cell_2_3 4)))
 (let (($x1328 (= cell_2_3 3)))
 (let (($x9476 (= cell_2_3 2)))
 (let (($x4456 (= cell_2_3 1)))
 (or $x4456 $x9476 $x1328 $x5942 $x3391 $x4546 $x5264 $x9064 $x5041)))))))))))
(assert
 (let (($x2106 (= cell_3_3 9)))
 (let (($x5330 (= cell_3_3 8)))
 (let (($x2547 (= cell_3_3 7)))
 (let (($x787 (= cell_3_3 6)))
 (let (($x9199 (= cell_3_3 5)))
 (let (($x2561 (= cell_3_3 4)))
 (let (($x1474 (= cell_3_3 3)))
 (let (($x6688 (= cell_3_3 2)))
 (let (($x5232 (= cell_3_3 1)))
 (or $x5232 $x6688 $x1474 $x2561 $x9199 $x787 $x2547 $x5330 $x2106)))))))))))
(assert
 (let (($x8839 (= cell_4_3 9)))
 (let (($x10225 (= cell_4_3 8)))
 (let (($x7466 (= cell_4_3 7)))
 (let (($x4415 (= cell_4_3 6)))
 (let (($x2203 (= cell_4_3 5)))
 (let (($x10227 (= cell_4_3 4)))
 (let (($x4834 (= cell_4_3 3)))
 (let (($x8464 (= cell_4_3 2)))
 (let (($x1950 (= cell_4_3 1)))
 (or $x1950 $x8464 $x4834 $x10227 $x2203 $x4415 $x7466 $x10225 $x8839)))))))))))
(assert
 (let (($x4242 (= cell_5_3 2)))
 (or (= cell_5_3 1) $x4242 (= cell_5_3 3) (= cell_5_3 4) (= cell_5_3 5) (= cell_5_3 6) (= cell_5_3 7) (= cell_5_3 8) (= cell_5_3 9))))
(assert
 (let (($x61 (= cell_6_3 9)))
 (let (($x2397 (= cell_6_3 8)))
 (let (($x7113 (= cell_6_3 7)))
 (let (($x8489 (= cell_6_3 6)))
 (let (($x671 (= cell_6_3 5)))
 (let (($x9180 (= cell_6_3 4)))
 (let (($x8622 (= cell_6_3 3)))
 (let (($x6508 (= cell_6_3 2)))
 (let (($x9239 (= cell_6_3 1)))
 (or $x9239 $x6508 $x8622 $x9180 $x671 $x8489 $x7113 $x2397 $x61)))))))))))
(assert
 (let (($x8000 (= cell_7_3 9)))
 (let (($x3933 (= cell_7_3 8)))
 (let (($x7626 (= cell_7_3 7)))
 (let (($x8016 (= cell_7_3 6)))
 (let (($x5158 (= cell_7_3 5)))
 (let (($x1844 (= cell_7_3 4)))
 (let (($x4953 (= cell_7_3 3)))
 (let (($x692 (= cell_7_3 2)))
 (let (($x2651 (= cell_7_3 1)))
 (or $x2651 $x692 $x4953 $x1844 $x5158 $x8016 $x7626 $x3933 $x8000)))))))))))
(assert
 (let (($x2730 (= cell_8_3 9)))
 (let (($x9558 (= cell_8_3 8)))
 (let (($x7837 (= cell_8_3 7)))
 (let (($x9182 (= cell_8_3 6)))
 (let (($x4875 (= cell_8_3 5)))
 (let (($x1837 (= cell_8_3 4)))
 (let (($x10050 (= cell_8_3 3)))
 (let (($x8165 (= cell_8_3 2)))
 (let (($x6223 (= cell_8_3 1)))
 (or $x6223 $x8165 $x10050 $x1837 $x4875 $x9182 $x7837 $x9558 $x2730)))))))))))
(assert
 (let (($x8278 (= cell_9_3 9)))
 (let (($x4516 (= cell_9_3 8)))
 (let (($x4028 (= cell_9_3 7)))
 (let (($x9812 (= cell_9_3 6)))
 (let (($x8340 (= cell_9_3 5)))
 (let (($x4498 (= cell_9_3 4)))
 (let (($x3241 (= cell_9_3 3)))
 (let (($x6366 (= cell_9_3 2)))
 (let (($x8915 (= cell_9_3 1)))
 (or $x8915 $x6366 $x3241 $x4498 $x8340 $x9812 $x4028 $x4516 $x8278)))))))))))
(assert
 (let (($x8524 (= cell_1_4 9)))
 (let (($x5024 (= cell_1_4 8)))
 (let (($x7066 (= cell_1_4 7)))
 (let (($x4519 (= cell_1_4 6)))
 (let (($x399 (= cell_1_4 5)))
 (let (($x6780 (= cell_1_4 4)))
 (let (($x906 (= cell_1_4 3)))
 (let (($x1864 (= cell_1_4 2)))
 (let (($x7738 (= cell_1_4 1)))
 (or $x7738 $x1864 $x906 $x6780 $x399 $x4519 $x7066 $x5024 $x8524)))))))))))
(assert
 (let (($x1553 (= cell_2_4 1)))
 (or $x1553 (= cell_2_4 2) (= cell_2_4 3) (= cell_2_4 4) (= cell_2_4 5) (= cell_2_4 6) (= cell_2_4 7) (= cell_2_4 8) (= cell_2_4 9))))
(assert
 (let (($x7269 (= cell_3_4 9)))
 (let (($x6152 (= cell_3_4 8)))
 (let (($x7004 (= cell_3_4 7)))
 (let (($x5656 (= cell_3_4 6)))
 (let (($x650 (= cell_3_4 5)))
 (let (($x2270 (= cell_3_4 4)))
 (let (($x4535 (= cell_3_4 3)))
 (let (($x9500 (= cell_3_4 2)))
 (let (($x5422 (= cell_3_4 1)))
 (or $x5422 $x9500 $x4535 $x2270 $x650 $x5656 $x7004 $x6152 $x7269)))))))))))
(assert
 (let (($x4860 (= cell_4_4 2)))
 (or (= cell_4_4 1) $x4860 (= cell_4_4 3) (= cell_4_4 4) (= cell_4_4 5) (= cell_4_4 6) (= cell_4_4 7) (= cell_4_4 8) (= cell_4_4 9))))
(assert
 (let (($x1038 (= cell_5_4 9)))
 (let (($x3098 (= cell_5_4 8)))
 (let (($x5301 (= cell_5_4 7)))
 (let (($x7525 (= cell_5_4 6)))
 (let (($x4786 (= cell_5_4 5)))
 (let (($x8851 (= cell_5_4 4)))
 (let (($x2733 (= cell_5_4 3)))
 (let (($x1290 (= cell_5_4 2)))
 (let (($x4866 (= cell_5_4 1)))
 (or $x4866 $x1290 $x2733 $x8851 $x4786 $x7525 $x5301 $x3098 $x1038)))))))))))
(assert
 (let (($x10047 (= cell_6_4 9)))
 (let (($x459 (= cell_6_4 8)))
 (let (($x2323 (= cell_6_4 7)))
 (let (($x7144 (= cell_6_4 6)))
 (let (($x3243 (= cell_6_4 5)))
 (let (($x10115 (= cell_6_4 4)))
 (let (($x2290 (= cell_6_4 3)))
 (let (($x5370 (= cell_6_4 2)))
 (let (($x4992 (= cell_6_4 1)))
 (or $x4992 $x5370 $x2290 $x10115 $x3243 $x7144 $x2323 $x459 $x10047)))))))))))
(assert
 (let (($x7816 (= cell_7_4 9)))
 (let (($x6832 (= cell_7_4 8)))
 (let (($x6490 (= cell_7_4 7)))
 (let (($x5859 (= cell_7_4 6)))
 (let (($x2980 (= cell_7_4 5)))
 (let (($x7159 (= cell_7_4 4)))
 (let (($x1969 (= cell_7_4 3)))
 (let (($x2438 (= cell_7_4 2)))
 (let (($x5008 (= cell_7_4 1)))
 (or $x5008 $x2438 $x1969 $x7159 $x2980 $x5859 $x6490 $x6832 $x7816)))))))))))
(assert
 (let (($x9539 (= cell_8_4 9)))
 (let (($x5582 (= cell_8_4 8)))
 (let (($x1581 (= cell_8_4 7)))
 (let (($x4411 (= cell_8_4 6)))
 (let (($x6328 (= cell_8_4 5)))
 (let (($x9811 (= cell_8_4 4)))
 (let (($x6285 (= cell_8_4 3)))
 (let (($x8528 (= cell_8_4 2)))
 (let (($x5949 (= cell_8_4 1)))
 (or $x5949 $x8528 $x6285 $x9811 $x6328 $x4411 $x1581 $x5582 $x9539)))))))))))
(assert
 (let (($x5834 (= cell_9_4 9)))
 (let (($x1282 (= cell_9_4 8)))
 (let (($x4199 (= cell_9_4 7)))
 (let (($x1419 (= cell_9_4 6)))
 (let (($x7948 (= cell_9_4 5)))
 (let (($x7233 (= cell_9_4 4)))
 (let (($x9230 (= cell_9_4 3)))
 (let (($x6486 (= cell_9_4 2)))
 (let (($x7999 (= cell_9_4 1)))
 (or $x7999 $x6486 $x9230 $x7233 $x7948 $x1419 $x4199 $x1282 $x5834)))))))))))
(assert
 (let (($x3521 (= cell_1_5 9)))
 (let (($x449 (= cell_1_5 8)))
 (let (($x7933 (= cell_1_5 7)))
 (let (($x1885 (= cell_1_5 6)))
 (let (($x8957 (= cell_1_5 5)))
 (let (($x3907 (= cell_1_5 4)))
 (let (($x8036 (= cell_1_5 3)))
 (let (($x4472 (= cell_1_5 2)))
 (let (($x2535 (= cell_1_5 1)))
 (or $x2535 $x4472 $x8036 $x3907 $x8957 $x1885 $x7933 $x449 $x3521)))))))))))
(assert
 (let (($x6082 (= cell_2_5 9)))
 (let (($x2432 (= cell_2_5 8)))
 (let (($x9567 (= cell_2_5 7)))
 (let (($x9024 (= cell_2_5 6)))
 (let (($x7126 (= cell_2_5 5)))
 (let (($x8002 (= cell_2_5 4)))
 (let (($x1481 (= cell_2_5 3)))
 (let (($x7456 (= cell_2_5 2)))
 (let (($x10239 (= cell_2_5 1)))
 (or $x10239 $x7456 $x1481 $x8002 $x7126 $x9024 $x9567 $x2432 $x6082)))))))))))
(assert
 (let (($x9621 (= cell_3_5 9)))
 (let (($x9293 (= cell_3_5 8)))
 (let (($x8522 (= cell_3_5 7)))
 (let (($x9418 (= cell_3_5 6)))
 (let (($x1365 (= cell_3_5 5)))
 (let (($x7900 (= cell_3_5 4)))
 (let (($x7628 (= cell_3_5 3)))
 (let (($x1414 (= cell_3_5 2)))
 (let (($x4419 (= cell_3_5 1)))
 (or $x4419 $x1414 $x7628 $x7900 $x1365 $x9418 $x8522 $x9293 $x9621)))))))))))
(assert
 (let (($x3972 (= cell_4_5 9)))
 (let (($x323 (= cell_4_5 8)))
 (let (($x3513 (= cell_4_5 7)))
 (let (($x1902 (= cell_4_5 6)))
 (let (($x9875 (= cell_4_5 5)))
 (let (($x1943 (= cell_4_5 4)))
 (let (($x5702 (= cell_4_5 3)))
 (let (($x7061 (= cell_4_5 2)))
 (let (($x8557 (= cell_4_5 1)))
 (or $x8557 $x7061 $x5702 $x1943 $x9875 $x1902 $x3513 $x323 $x3972)))))))))))
(assert
 (let (($x1107 (= cell_5_5 9)))
 (let (($x6884 (= cell_5_5 8)))
 (let (($x9039 (= cell_5_5 7)))
 (let (($x1268 (= cell_5_5 6)))
 (let (($x8848 (= cell_5_5 5)))
 (let (($x5580 (= cell_5_5 4)))
 (let (($x4233 (= cell_5_5 3)))
 (let (($x5701 (= cell_5_5 2)))
 (let (($x8749 (= cell_5_5 1)))
 (or $x8749 $x5701 $x4233 $x5580 $x8848 $x1268 $x9039 $x6884 $x1107)))))))))))
(assert
 (let (($x1626 (= cell_6_5 9)))
 (let (($x8326 (= cell_6_5 8)))
 (let (($x3148 (= cell_6_5 7)))
 (let (($x6170 (= cell_6_5 6)))
 (let (($x5803 (= cell_6_5 5)))
 (let (($x9204 (= cell_6_5 4)))
 (let (($x7721 (= cell_6_5 3)))
 (let (($x9815 (= cell_6_5 2)))
 (let (($x6476 (= cell_6_5 1)))
 (or $x6476 $x9815 $x7721 $x9204 $x5803 $x6170 $x3148 $x8326 $x1626)))))))))))
(assert
 (let (($x5779 (= cell_7_5 2)))
 (or (= cell_7_5 1) $x5779 (= cell_7_5 3) (= cell_7_5 4) (= cell_7_5 5) (= cell_7_5 6) (= cell_7_5 7) (= cell_7_5 8) (= cell_7_5 9))))
(assert
 (let (($x9569 (= cell_8_5 1)))
 (or $x9569 (= cell_8_5 2) (= cell_8_5 3) (= cell_8_5 4) (= cell_8_5 5) (= cell_8_5 6) (= cell_8_5 7) (= cell_8_5 8) (= cell_8_5 9))))
(assert
 (let (($x1450 (= cell_9_5 9)))
 (let (($x6799 (= cell_9_5 8)))
 (let (($x6897 (= cell_9_5 7)))
 (let (($x2091 (= cell_9_5 6)))
 (let (($x6280 (= cell_9_5 5)))
 (let (($x4237 (= cell_9_5 4)))
 (let (($x9334 (= cell_9_5 3)))
 (let (($x5269 (= cell_9_5 2)))
 (let (($x803 (= cell_9_5 1)))
 (or $x803 $x5269 $x9334 $x4237 $x6280 $x2091 $x6897 $x6799 $x1450)))))))))))
(assert
 (let (($x9007 (= cell_1_6 9)))
 (let (($x4489 (= cell_1_6 8)))
 (let (($x1485 (= cell_1_6 7)))
 (let (($x7589 (= cell_1_6 6)))
 (let (($x7578 (= cell_1_6 5)))
 (let (($x6016 (= cell_1_6 4)))
 (let (($x8509 (= cell_1_6 3)))
 (let (($x4129 (= cell_1_6 2)))
 (let (($x6243 (= cell_1_6 1)))
 (or $x6243 $x4129 $x8509 $x6016 $x7578 $x7589 $x1485 $x4489 $x9007)))))))))))
(assert
 (let (($x943 (= cell_2_6 9)))
 (let (($x5267 (= cell_2_6 8)))
 (let (($x752 (= cell_2_6 7)))
 (let (($x8783 (= cell_2_6 6)))
 (let (($x5730 (= cell_2_6 5)))
 (let (($x1845 (= cell_2_6 4)))
 (let (($x9845 (= cell_2_6 3)))
 (let (($x9626 (= cell_2_6 2)))
 (let (($x3830 (= cell_2_6 1)))
 (or $x3830 $x9626 $x9845 $x1845 $x5730 $x8783 $x752 $x5267 $x943)))))))))))
(assert
 (let (($x2928 (= cell_3_6 2)))
 (or (= cell_3_6 1) $x2928 (= cell_3_6 3) (= cell_3_6 4) (= cell_3_6 5) (= cell_3_6 6) (= cell_3_6 7) (= cell_3_6 8) (= cell_3_6 9))))
(assert
 (let (($x3081 (= cell_4_6 9)))
 (let (($x7926 (= cell_4_6 8)))
 (let (($x9235 (= cell_4_6 7)))
 (let (($x9382 (= cell_4_6 6)))
 (let (($x7170 (= cell_4_6 5)))
 (let (($x4849 (= cell_4_6 4)))
 (let (($x7546 (= cell_4_6 3)))
 (let (($x5551 (= cell_4_6 2)))
 (let (($x545 (= cell_4_6 1)))
 (or $x545 $x5551 $x7546 $x4849 $x7170 $x9382 $x9235 $x7926 $x3081)))))))))))
(assert
 (let (($x5020 (= cell_5_6 9)))
 (let (($x3689 (= cell_5_6 8)))
 (let (($x4080 (= cell_5_6 7)))
 (let (($x4932 (= cell_5_6 6)))
 (let (($x8426 (= cell_5_6 5)))
 (let (($x4260 (= cell_5_6 4)))
 (let (($x5237 (= cell_5_6 3)))
 (let (($x2085 (= cell_5_6 2)))
 (let (($x5562 (= cell_5_6 1)))
 (or $x5562 $x2085 $x5237 $x4260 $x8426 $x4932 $x4080 $x3689 $x5020)))))))))))
(assert
 (let (($x7043 (= cell_6_6 1)))
 (or $x7043 (= cell_6_6 2) (= cell_6_6 3) (= cell_6_6 4) (= cell_6_6 5) (= cell_6_6 6) (= cell_6_6 7) (= cell_6_6 8) (= cell_6_6 9))))
(assert
 (let (($x9370 (= cell_7_6 9)))
 (let (($x1500 (= cell_7_6 8)))
 (let (($x4084 (= cell_7_6 7)))
 (let (($x6159 (= cell_7_6 6)))
 (let (($x3811 (= cell_7_6 5)))
 (let (($x1234 (= cell_7_6 4)))
 (let (($x8461 (= cell_7_6 3)))
 (let (($x7419 (= cell_7_6 2)))
 (let (($x3603 (= cell_7_6 1)))
 (or $x3603 $x7419 $x8461 $x1234 $x3811 $x6159 $x4084 $x1500 $x9370)))))))))))
(assert
 (let (($x5206 (= cell_8_6 2)))
 (let (($x64 (= cell_8_6 1)))
 (or $x64 $x5206 (= cell_8_6 3) (= cell_8_6 4) (= cell_8_6 5) (= cell_8_6 6) (= cell_8_6 7) (= cell_8_6 8) (= cell_8_6 9)))))
(assert
 (let (($x7085 (= cell_9_6 9)))
 (let (($x3065 (= cell_9_6 8)))
 (let (($x6361 (= cell_9_6 7)))
 (let (($x3862 (= cell_9_6 6)))
 (let (($x4221 (= cell_9_6 5)))
 (let (($x1028 (= cell_9_6 4)))
 (let (($x5778 (= cell_9_6 3)))
 (let (($x4450 (= cell_9_6 2)))
 (let (($x279 (= cell_9_6 1)))
 (or $x279 $x4450 $x5778 $x1028 $x4221 $x3862 $x6361 $x3065 $x7085)))))))))))
(assert
 (let (($x524 (= cell_1_7 9)))
 (let (($x8531 (= cell_1_7 8)))
 (let (($x5238 (= cell_1_7 7)))
 (let (($x10099 (= cell_1_7 6)))
 (let (($x751 (= cell_1_7 5)))
 (let (($x5686 (= cell_1_7 4)))
 (let (($x510 (= cell_1_7 3)))
 (let (($x1658 (= cell_1_7 2)))
 (let (($x281 (= cell_1_7 1)))
 (or $x281 $x1658 $x510 $x5686 $x751 $x10099 $x5238 $x8531 $x524)))))))))))
(assert
 (let (($x9113 (= cell_2_7 9)))
 (let (($x8997 (= cell_2_7 8)))
 (let (($x6564 (= cell_2_7 7)))
 (let (($x1006 (= cell_2_7 6)))
 (let (($x2691 (= cell_2_7 5)))
 (let (($x6857 (= cell_2_7 4)))
 (let (($x3756 (= cell_2_7 3)))
 (let (($x4077 (= cell_2_7 2)))
 (let (($x6652 (= cell_2_7 1)))
 (or $x6652 $x4077 $x3756 $x6857 $x2691 $x1006 $x6564 $x8997 $x9113)))))))))))
(assert
 (let (($x5360 (= cell_3_7 9)))
 (let (($x1543 (= cell_3_7 8)))
 (let (($x8034 (= cell_3_7 7)))
 (let (($x4336 (= cell_3_7 6)))
 (let (($x1528 (= cell_3_7 5)))
 (let (($x1963 (= cell_3_7 4)))
 (let (($x5950 (= cell_3_7 3)))
 (let (($x7603 (= cell_3_7 2)))
 (let (($x9836 (= cell_3_7 1)))
 (or $x9836 $x7603 $x5950 $x1963 $x1528 $x4336 $x8034 $x1543 $x5360)))))))))))
(assert
 (let (($x7640 (= cell_4_7 9)))
 (let (($x5202 (= cell_4_7 8)))
 (let (($x2352 (= cell_4_7 7)))
 (let (($x8078 (= cell_4_7 6)))
 (let (($x3616 (= cell_4_7 5)))
 (let (($x931 (= cell_4_7 4)))
 (let (($x5299 (= cell_4_7 3)))
 (let (($x5769 (= cell_4_7 2)))
 (let (($x5556 (= cell_4_7 1)))
 (or $x5556 $x5769 $x5299 $x931 $x3616 $x8078 $x2352 $x5202 $x7640)))))))))))
(assert
 (let (($x1891 (= cell_5_7 9)))
 (let (($x8050 (= cell_5_7 8)))
 (let (($x5776 (= cell_5_7 7)))
 (let (($x8493 (= cell_5_7 6)))
 (let (($x8588 (= cell_5_7 5)))
 (let (($x29 (= cell_5_7 4)))
 (let (($x9765 (= cell_5_7 3)))
 (let (($x7881 (= cell_5_7 2)))
 (let (($x4386 (= cell_5_7 1)))
 (or $x4386 $x7881 $x9765 $x29 $x8588 $x8493 $x5776 $x8050 $x1891)))))))))))
(assert
 (let (($x7092 (= cell_6_7 2)))
 (or (= cell_6_7 1) $x7092 (= cell_6_7 3) (= cell_6_7 4) (= cell_6_7 5) (= cell_6_7 6) (= cell_6_7 7) (= cell_6_7 8) (= cell_6_7 9))))
(assert
 (let (($x9332 (= cell_7_7 9)))
 (let (($x1931 (= cell_7_7 8)))
 (let (($x9398 (= cell_7_7 7)))
 (let (($x10267 (= cell_7_7 6)))
 (let (($x4918 (= cell_7_7 5)))
 (let (($x1566 (= cell_7_7 4)))
 (let (($x3495 (= cell_7_7 3)))
 (let (($x1277 (= cell_7_7 2)))
 (let (($x8488 (= cell_7_7 1)))
 (or $x8488 $x1277 $x3495 $x1566 $x4918 $x10267 $x9398 $x1931 $x9332)))))))))))
(assert
 (let (($x3935 (= cell_8_7 9)))
 (let (($x5959 (= cell_8_7 8)))
 (let (($x2609 (= cell_8_7 7)))
 (let (($x1331 (= cell_8_7 6)))
 (let (($x2370 (= cell_8_7 5)))
 (let (($x734 (= cell_8_7 4)))
 (let (($x5193 (= cell_8_7 3)))
 (let (($x7757 (= cell_8_7 2)))
 (let (($x7425 (= cell_8_7 1)))
 (or $x7425 $x7757 $x5193 $x734 $x2370 $x1331 $x2609 $x5959 $x3935)))))))))))
(assert
 (let (($x5726 (= cell_9_7 1)))
 (or $x5726 (= cell_9_7 2) (= cell_9_7 3) (= cell_9_7 4) (= cell_9_7 5) (= cell_9_7 6) (= cell_9_7 7) (= cell_9_7 8) (= cell_9_7 9))))
(assert
 (let (($x9219 (= cell_1_8 9)))
 (let (($x4043 (= cell_1_8 8)))
 (let (($x655 (= cell_1_8 7)))
 (let (($x10049 (= cell_1_8 6)))
 (let (($x7393 (= cell_1_8 5)))
 (let (($x2351 (= cell_1_8 4)))
 (let (($x4272 (= cell_1_8 3)))
 (let (($x3411 (= cell_1_8 2)))
 (let (($x3635 (= cell_1_8 1)))
 (or $x3635 $x3411 $x4272 $x2351 $x7393 $x10049 $x655 $x4043 $x9219)))))))))))
(assert
 (let (($x2310 (= cell_2_8 9)))
 (let (($x9222 (= cell_2_8 8)))
 (let (($x9481 (= cell_2_8 7)))
 (let (($x6817 (= cell_2_8 6)))
 (let (($x4533 (= cell_2_8 5)))
 (let (($x3366 (= cell_2_8 4)))
 (let (($x2095 (= cell_2_8 3)))
 (let (($x9814 (= cell_2_8 2)))
 (let (($x1758 (= cell_2_8 1)))
 (or $x1758 $x9814 $x2095 $x3366 $x4533 $x6817 $x9481 $x9222 $x2310)))))))))))
(assert
 (let (($x9287 (= cell_3_8 1)))
 (or $x9287 (= cell_3_8 2) (= cell_3_8 3) (= cell_3_8 4) (= cell_3_8 5) (= cell_3_8 6) (= cell_3_8 7) (= cell_3_8 8) (= cell_3_8 9))))
(assert
 (let (($x2242 (= cell_4_8 9)))
 (let (($x1904 (= cell_4_8 8)))
 (let (($x5017 (= cell_4_8 7)))
 (let (($x1334 (= cell_4_8 6)))
 (let (($x7547 (= cell_4_8 5)))
 (let (($x1154 (= cell_4_8 4)))
 (let (($x6786 (= cell_4_8 3)))
 (let (($x8173 (= cell_4_8 2)))
 (let (($x656 (= cell_4_8 1)))
 (or $x656 $x8173 $x6786 $x1154 $x7547 $x1334 $x5017 $x1904 $x2242)))))))))))
(assert
 (let (($x7646 (= cell_5_8 9)))
 (let (($x3691 (= cell_5_8 8)))
 (let (($x6214 (= cell_5_8 7)))
 (let (($x6805 (= cell_5_8 6)))
 (let (($x7524 (= cell_5_8 5)))
 (let (($x600 (= cell_5_8 4)))
 (let (($x7319 (= cell_5_8 3)))
 (let (($x6675 (= cell_5_8 2)))
 (let (($x9822 (= cell_5_8 1)))
 (or $x9822 $x6675 $x7319 $x600 $x7524 $x6805 $x6214 $x3691 $x7646)))))))))))
(assert
 (let (($x7391 (= cell_6_8 9)))
 (let (($x9948 (= cell_6_8 8)))
 (let (($x4606 (= cell_6_8 7)))
 (let (($x9364 (= cell_6_8 6)))
 (let (($x7310 (= cell_6_8 5)))
 (let (($x3647 (= cell_6_8 4)))
 (let (($x2070 (= cell_6_8 3)))
 (let (($x4810 (= cell_6_8 2)))
 (let (($x6390 (= cell_6_8 1)))
 (or $x6390 $x4810 $x2070 $x3647 $x7310 $x9364 $x4606 $x9948 $x7391)))))))))))
(assert
 (let (($x4831 (= cell_7_8 9)))
 (let (($x9691 (= cell_7_8 8)))
 (let (($x1627 (= cell_7_8 7)))
 (let (($x6327 (= cell_7_8 6)))
 (let (($x2126 (= cell_7_8 5)))
 (let (($x6692 (= cell_7_8 4)))
 (let (($x7260 (= cell_7_8 3)))
 (let (($x2144 (= cell_7_8 2)))
 (let (($x1989 (= cell_7_8 1)))
 (or $x1989 $x2144 $x7260 $x6692 $x2126 $x6327 $x1627 $x9691 $x4831)))))))))))
(assert
 (let (($x2154 (= cell_8_8 9)))
 (let (($x9602 (= cell_8_8 8)))
 (let (($x10031 (= cell_8_8 7)))
 (let (($x1296 (= cell_8_8 6)))
 (let (($x1565 (= cell_8_8 5)))
 (let (($x8762 (= cell_8_8 4)))
 (let (($x3169 (= cell_8_8 3)))
 (let (($x3380 (= cell_8_8 2)))
 (let (($x7521 (= cell_8_8 1)))
 (or $x7521 $x3380 $x3169 $x8762 $x1565 $x1296 $x10031 $x9602 $x2154)))))))))))
(assert
 (let (($x314 (= cell_9_8 2)))
 (or (= cell_9_8 1) $x314 (= cell_9_8 3) (= cell_9_8 4) (= cell_9_8 5) (= cell_9_8 6) (= cell_9_8 7) (= cell_9_8 8) (= cell_9_8 9))))
(assert
 (let (($x761 (= cell_1_9 9)))
 (let (($x2312 (= cell_1_9 8)))
 (let (($x9012 (= cell_1_9 7)))
 (let (($x5322 (= cell_1_9 6)))
 (let (($x1319 (= cell_1_9 5)))
 (let (($x4204 (= cell_1_9 4)))
 (let (($x8072 (= cell_1_9 3)))
 (let (($x9174 (= cell_1_9 2)))
 (let (($x5005 (= cell_1_9 1)))
 (or $x5005 $x9174 $x8072 $x4204 $x1319 $x5322 $x9012 $x2312 $x761)))))))))))
(assert
 (let (($x4172 (= cell_2_9 2)))
 (or (= cell_2_9 1) $x4172 (= cell_2_9 3) (= cell_2_9 4) (= cell_2_9 5) (= cell_2_9 6) (= cell_2_9 7) (= cell_2_9 8) (= cell_2_9 9))))
(assert
 (let (($x9307 (= cell_3_9 9)))
 (let (($x994 (= cell_3_9 8)))
 (let (($x1831 (= cell_3_9 7)))
 (let (($x1859 (= cell_3_9 6)))
 (let (($x7120 (= cell_3_9 5)))
 (let (($x3752 (= cell_3_9 4)))
 (let (($x2647 (= cell_3_9 3)))
 (let (($x4658 (= cell_3_9 2)))
 (let (($x2785 (= cell_3_9 1)))
 (or $x2785 $x4658 $x2647 $x3752 $x7120 $x1859 $x1831 $x994 $x9307)))))))))))
(assert
 (let (($x766 (= cell_4_9 9)))
 (let (($x5839 (= cell_4_9 8)))
 (let (($x4460 (= cell_4_9 7)))
 (let (($x2605 (= cell_4_9 6)))
 (let (($x3288 (= cell_4_9 5)))
 (let (($x3117 (= cell_4_9 4)))
 (let (($x3769 (= cell_4_9 3)))
 (let (($x7172 (= cell_4_9 2)))
 (let (($x3362 (= cell_4_9 1)))
 (or $x3362 $x7172 $x3769 $x3117 $x3288 $x2605 $x4460 $x5839 $x766)))))))))))
(assert
 (let (($x1101 (= cell_5_9 1)))
 (or $x1101 (= cell_5_9 2) (= cell_5_9 3) (= cell_5_9 4) (= cell_5_9 5) (= cell_5_9 6) (= cell_5_9 7) (= cell_5_9 8) (= cell_5_9 9))))
(assert
 (let (($x3614 (= cell_6_9 2)))
 (let (($x1521 (= cell_6_9 1)))
 (or $x1521 $x3614 (= cell_6_9 3) (= cell_6_9 4) (= cell_6_9 5) (= cell_6_9 6) (= cell_6_9 7) (= cell_6_9 8) (= cell_6_9 9)))))
(assert
 (let (($x9952 (= cell_7_9 9)))
 (let (($x2395 (= cell_7_9 8)))
 (let (($x2558 (= cell_7_9 7)))
 (let (($x3049 (= cell_7_9 6)))
 (let (($x361 (= cell_7_9 5)))
 (let (($x8156 (= cell_7_9 4)))
 (let (($x1475 (= cell_7_9 3)))
 (let (($x4622 (= cell_7_9 2)))
 (let (($x6321 (= cell_7_9 1)))
 (or $x6321 $x4622 $x1475 $x8156 $x361 $x3049 $x2558 $x2395 $x9952)))))))))))
(assert
 (let (($x296 (= cell_8_9 9)))
 (let (($x3801 (= cell_8_9 8)))
 (let (($x5751 (= cell_8_9 7)))
 (let (($x653 (= cell_8_9 6)))
 (let (($x1747 (= cell_8_9 5)))
 (let (($x1696 (= cell_8_9 4)))
 (let (($x9161 (= cell_8_9 3)))
 (let (($x2585 (= cell_8_9 2)))
 (let (($x7665 (= cell_8_9 1)))
 (or $x7665 $x2585 $x9161 $x1696 $x1747 $x653 $x5751 $x3801 $x296)))))))))))
(assert
 (let (($x2121 (= cell_9_9 2)))
 (let (($x7173 (= cell_9_9 1)))
 (or $x7173 $x2121 (= cell_9_9 3) (= cell_9_9 4) (= cell_9_9 5) (= cell_9_9 6) (= cell_9_9 7) (= cell_9_9 8) (= cell_9_9 9)))))
(assert
 (and (distinct cell_1_1 cell_1_2 cell_1_3 cell_1_4 cell_1_5 cell_1_6 cell_1_7 cell_1_8 cell_1_9) true))
(assert
 (and (distinct cell_2_1 cell_2_2 cell_2_3 cell_2_4 cell_2_5 cell_2_6 cell_2_7 cell_2_8 cell_2_9) true))
(assert
 (and (distinct cell_3_1 cell_3_2 cell_3_3 cell_3_4 cell_3_5 cell_3_6 cell_3_7 cell_3_8 cell_3_9) true))
(assert
 (and (distinct cell_4_1 cell_4_2 cell_4_3 cell_4_4 cell_4_5 cell_4_6 cell_4_7 cell_4_8 cell_4_9) true))
(assert
 (and (distinct cell_5_1 cell_5_2 cell_5_3 cell_5_4 cell_5_5 cell_5_6 cell_5_7 cell_5_8 cell_5_9) true))
(assert
 (and (distinct cell_6_1 cell_6_2 cell_6_3 cell_6_4 cell_6_5 cell_6_6 cell_6_7 cell_6_8 cell_6_9) true))
(assert
 (and (distinct cell_7_1 cell_7_2 cell_7_3 cell_7_4 cell_7_5 cell_7_6 cell_7_7 cell_7_8 cell_7_9) true))
(assert
 (and (distinct cell_8_1 cell_8_2 cell_8_3 cell_8_4 cell_8_5 cell_8_6 cell_8_7 cell_8_8 cell_8_9) true))
(assert
 (and (distinct cell_9_1 cell_9_2 cell_9_3 cell_9_4 cell_9_5 cell_9_6 cell_9_7 cell_9_8 cell_9_9) true))
(assert
 (and (distinct cell_1_1 cell_2_1 cell_3_1 cell_4_1 cell_5_1 cell_6_1 cell_7_1 cell_8_1 cell_9_1) true))
(assert
 (and (distinct cell_1_2 cell_2_2 cell_3_2 cell_4_2 cell_5_2 cell_6_2 cell_7_2 cell_8_2 cell_9_2) true))
(assert
 (and (distinct cell_1_3 cell_2_3 cell_3_3 cell_4_3 cell_5_3 cell_6_3 cell_7_3 cell_8_3 cell_9_3) true))
(assert
 (and (distinct cell_1_4 cell_2_4 cell_3_4 cell_4_4 cell_5_4 cell_6_4 cell_7_4 cell_8_4 cell_9_4) true))
(assert
 (and (distinct cell_1_5 cell_2_5 cell_3_5 cell_4_5 cell_5_5 cell_6_5 cell_7_5 cell_8_5 cell_9_5) true))
(assert
 (and (distinct cell_1_6 cell_2_6 cell_3_6 cell_4_6 cell_5_6 cell_6_6 cell_7_6 cell_8_6 cell_9_6) true))
(assert
 (and (distinct cell_1_7 cell_2_7 cell_3_7 cell_4_7 cell_5_7 cell_6_7 cell_7_7 cell_8_7 cell_9_7) true))
(assert
 (and (distinct cell_1_8 cell_2_8 cell_3_8 cell_4_8 cell_5_8 cell_6_8 cell_7_8 cell_8_8 cell_9_8) true))
(assert
 (and (distinct cell_1_9 cell_2_9 cell_3_9 cell_4_9 cell_5_9 cell_6_9 cell_7_9 cell_8_9 cell_9_9) true))
(assert
 (and (distinct cell_1_1 cell_1_2 cell_1_3 cell_2_1 cell_2_2 cell_2_3 cell_3_1 cell_3_2 cell_3_3) true))
(assert
 (and (distinct cell_1_4 cell_1_5 cell_1_6 cell_2_4 cell_2_5 cell_2_6 cell_3_4 cell_3_5 cell_3_6) true))
(assert
 (and (distinct cell_1_7 cell_1_8 cell_1_9 cell_2_7 cell_2_8 cell_2_9 cell_3_7 cell_3_8 cell_3_9) true))
(assert
 (and (distinct cell_4_1 cell_4_2 cell_4_3 cell_5_1 cell_5_2 cell_5_3 cell_6_1 cell_6_2 cell_6_3) true))
(assert
 (and (distinct cell_4_4 cell_4_5 cell_4_6 cell_5_4 cell_5_5 cell_5_6 cell_6_4 cell_6_5 cell_6_6) true))
(assert
 (and (distinct cell_4_7 cell_4_8 cell_4_9 cell_5_7 cell_5_8 cell_5_9 cell_6_7 cell_6_8 cell_6_9) true))
(assert
 (and (distinct cell_7_1 cell_7_2 cell_7_3 cell_8_1 cell_8_2 cell_8_3 cell_9_1 cell_9_2 cell_9_3) true))
(assert
 (and (distinct cell_7_4 cell_7_5 cell_7_6 cell_8_4 cell_8_5 cell_8_6 cell_9_4 cell_9_5 cell_9_6) true))
(assert
 (and (distinct cell_7_7 cell_7_8 cell_7_9 cell_8_7 cell_8_8 cell_8_9 cell_9_7 cell_9_8 cell_9_9) true))
(assert
 (let (($x2192 (and (distinct cell_5_9 cell_6_8 cell_7_7 cell_8_6) true)))
 (let (($x1169 (and (distinct cell_2_9 cell_3_8 cell_4_7 cell_5_6 cell_6_5 cell_7_4 cell_8_3 cell_9_2) true)))
 (let (($x3694 (and (distinct cell_1_8 cell_2_7 cell_3_6 cell_4_5 cell_5_4 cell_6_3 cell_7_2 cell_8_1) true)))
 (let (($x9240 (and (distinct cell_1_5 cell_2_4 cell_3_3 cell_4_2) true)))
 (let (($x5874 (and (distinct cell_5_1 cell_6_2 cell_7_3 cell_8_4) true)))
 (let (($x8300 (and (distinct cell_2_1 cell_3_2 cell_4_3 cell_5_4 cell_6_5 cell_7_6 cell_8_7 cell_9_8) true)))
 (let (($x5307 (and (distinct cell_1_2 cell_2_3 cell_3_4 cell_4_5 cell_5_6 cell_6_7 cell_7_8 cell_8_9) true)))
 (let (($x6427 (and (distinct cell_1_5 cell_2_6 cell_3_7 cell_4_8) true)))
 (and $x6427 $x5307 $x8300 $x5874 $x9240 $x3694 $x1169 $x2192))))))))))
(assert
 (= cell_1_9 3))
(check-sat)
